language ESSENCE' 1.0

letting jobs = 102
letting horizon = 785
letting resourcesRenew = 2
letting resourcesNonrenew = 2
letting resourceLimits = [19, 18, 279, 287]
letting successors = [[2, 3, 4, 5, 6, 7, 8, 9, 11, 12, 13, 14, 15, 16, 18, 19, 21, 37], [55, 54, 41, 39, 33, 30, 28, 27, 26, 25, 24, 20], [41, 39, 34, 30, 27, 26, 23, 20, 17], [48, 47, 43, 32, 25, 24, 22, 10], [47, 43, 41, 40, 39, 36, 32, 30, 27, 26, 17], [55, 54, 53, 52, 48, 47, 46, 43, 41, 39, 35, 26, 24], [56, 55, 54, 52, 47, 44, 41, 39, 31, 30, 24], [61, 55, 50, 48, 43, 42, 34, 33, 32, 25], [57, 56, 48, 41, 29, 28, 27, 24], [79, 69, 63, 61, 54, 53, 52, 51, 42, 39, 38, 35, 34, 30], [79, 60, 57, 56, 55, 53, 52, 48, 43, 24, 23], [79, 61, 58, 57, 56, 55, 53, 48, 44, 43, 42, 36, 30], [79, 71, 63, 62, 54, 52, 50, 47, 42, 41, 39, 36, 34], [62, 56, 55, 53, 48, 45, 42, 41, 36, 26], [79, 61, 60, 56, 54, 53, 50, 46, 44, 43, 24], [79, 60, 55, 53, 46, 44, 43, 41, 39, 24], [79, 60, 57, 56, 55, 54, 52, 48, 46, 24], [79, 63, 62, 54, 52, 51, 50, 47, 42, 27], [71, 62, 59, 54, 53, 46, 45, 41, 26], [79, 71, 69, 57, 51, 48, 43, 38, 35], [76, 73, 68, 63, 62, 61, 60, 58, 52, 50, 45, 44, 40], [79, 66, 65, 62, 60, 59, 58, 57, 56, 55, 50, 45, 41], [73, 72, 69, 68, 66, 65, 64, 63, 62, 61, 59, 58, 50, 47, 46, 45], [87, 76, 71, 69, 68, 67, 65, 64, 63, 62, 58, 51, 38], [79, 73, 71, 66, 65, 64, 63, 62, 58, 49, 36], [79, 76, 73, 72, 69, 68, 67, 65, 63, 61, 60, 58, 57, 50, 49, 44], [76, 71, 69, 68, 65, 64, 61, 60, 53, 46, 38], [87, 79, 76, 71, 69, 68, 67, 64, 58, 52, 38], [73, 72, 69, 66, 65, 61, 60, 59, 51, 50, 46, 45, 44], [76, 73, 72, 71, 68, 66, 65, 64, 62, 60, 59, 50, 45], [79, 73, 72, 65, 64, 60, 58, 57, 49, 48, 46], [87, 80, 76, 73, 70, 69, 68, 62, 60, 54, 51], [87, 80, 73, 70, 67, 65, 59, 58, 53, 47], [73, 72, 68, 67, 59, 58, 57, 46, 45], [80, 77, 76, 75, 70, 68, 67, 66, 65, 60, 58, 56], [87, 80, 76, 69, 68, 67, 60, 59, 51], [87, 84, 79, 78, 69, 66, 60, 49], [101, 73, 72, 66, 59, 45], [100, 78, 72, 68, 67, 66, 49], [87, 79, 69, 67, 59, 53], [86, 77, 76, 72, 68, 67, 61], [91, 86, 77, 76, 75, 74, 73, 72, 65], [101, 86, 80, 74, 65, 63, 62], [101, 100, 96, 95, 93, 87, 84, 78, 77, 74, 70, 64], [100, 84, 78, 49], [101, 98, 95, 93, 87, 86, 85, 84, 80, 77, 75, 74, 70], [101, 99, 98, 93, 91, 86, 84, 82, 77, 76, 75, 74], [100, 98, 81, 77, 75, 68, 63], [99, 98, 95, 93, 85, 80, 77, 75, 74, 70], [99, 98, 96, 95, 94, 93, 87, 85, 84, 77, 70], [100, 99, 98, 96, 95, 94, 91, 86, 82, 78, 77, 74], [98, 97, 95, 93, 92, 91, 85, 75, 74, 72], [101, 100, 99, 97, 96, 93, 72, 66], [91, 85, 75, 72, 58], [99, 97, 96, 93, 83, 72, 69], [97, 96, 94, 93, 91, 87, 86, 74, 73], [100, 98, 97, 96, 95, 93, 91, 84, 83, 81, 78], [101, 99, 96, 94, 93, 92, 84, 83, 82, 81], [99, 97, 96, 93, 85, 84, 82, 78, 74], [101, 100, 99, 97, 95, 93, 91, 82, 74], [100, 98, 95, 93, 92, 85, 80, 74], [98, 96, 93, 92, 91, 88, 77], [95, 94, 92, 90, 84, 82, 78], [98, 94, 91, 89, 86, 80], [99, 98, 94, 93, 92, 88, 85], [95, 91, 90, 88, 86, 85], [98, 94, 91, 88, 83, 81], [101, 97, 96, 93, 91, 89, 88], [100, 98, 94, 91, 90, 89, 88], [92, 91, 89, 82, 81], [97, 95, 94, 84, 83], [89, 84, 82, 81], [95, 92, 90, 89], [89, 88, 81], [96, 94, 83], [95, 78], [97, 83], [89, 88], [91, 88], [82], [90], [88], [89], [88], [89], [92], [88], [102], [102], [102], [102], [102], [102], [102], [102], [102], [102], [102], [102], [102], [102], []]
letting durations = [[0], [3, 4, 6], [2, 8, 8], [4, 8, 9], [4, 5, 10], [3, 5, 10], [5, 7, 9], [4, 8, 9], [2, 3, 6], [5, 8, 10], [1, 3, 8], [5, 7, 8], [3, 5, 6], [7, 7, 8], [5, 6, 10], [2, 8, 8], [1, 2, 5], [1, 2, 4], [6, 6, 7], [6, 7, 7], [5, 8, 10], [6, 8, 9], [2, 4, 6], [3, 7, 8], [3, 8, 9], [3, 4, 5], [2, 8, 9], [2, 2, 6], [2, 8, 10], [2, 6, 8], [2, 5, 6], [2, 6, 9], [2, 3, 8], [3, 4, 4], [1, 6, 7], [2, 3, 4], [1, 4, 6], [9, 9, 10], [2, 3, 7], [1, 3, 9], [3, 7, 8], [2, 8, 10], [5, 6, 8], [2, 6, 8], [2, 6, 8], [1, 9, 10], [1, 2, 9], [6, 7, 10], [6, 8, 9], [2, 5, 9], [2, 4, 9], [2, 3, 4], [2, 7, 7], [1, 6, 10], [1, 3, 9], [4, 8, 10], [2, 6, 7], [2, 5, 6], [4, 6, 9], [4, 5, 6], [2, 6, 10], [2, 2, 3], [6, 7, 9], [6, 8, 10], [2, 3, 10], [2, 5, 6], [3, 5, 8], [5, 7, 10], [2, 8, 9], [5, 6, 8], [2, 3, 5], [3, 5, 7], [6, 6, 7], [2, 3, 8], [2, 6, 9], [7, 7, 10], [2, 3, 6], [2, 5, 8], [3, 6, 10], [4, 5, 10], [6, 6, 7], [3, 5, 9], [6, 6, 10], [5, 6, 7], [1, 5, 6], [1, 4, 8], [2, 4, 5], [2, 4, 6], [2, 4, 7], [1, 1, 4], [3, 10, 10], [2, 3, 6], [5, 8, 9], [3, 6, 9], [2, 4, 6], [1, 2, 5], [6, 9, 10], [3, 8, 9], [5, 6, 8], [7, 8, 9], [3, 7, 8], [0]]
letting resourceUsage = [[[0, 0, 0, 0]], [[3, 4, 0, 8], [3, 4, 0, 7], [3, 4, 0, 6]], [[3, 4, 0, 4], [1, 3, 0, 4], [1, 3, 7, 0]], [[4, 3, 0, 7], [4, 2, 0, 3], [4, 2, 0, 2]], [[3, 5, 7, 0], [3, 4, 4, 0], [3, 3, 2, 0]], [[5, 4, 0, 5], [5, 4, 6, 0], [5, 4, 5, 0]], [[4, 5, 10, 0], [4, 3, 0, 7], [3, 3, 0, 5]], [[5, 3, 8, 0], [3, 3, 7, 0], [3, 3, 6, 0]], [[3, 3, 0, 6], [2, 2, 0, 4], [1, 2, 0, 1]], [[3, 2, 4, 0], [2, 2, 3, 0], [2, 2, 0, 1]], [[5, 3, 0, 9], [2, 3, 0, 9], [1, 3, 0, 9]], [[3, 3, 0, 8], [2, 2, 0, 5], [1, 2, 0, 5]], [[2, 4, 6, 0], [2, 4, 5, 0], [2, 3, 0, 8]], [[3, 1, 5, 0], [2, 1, 0, 2], [2, 1, 0, 1]], [[2, 4, 4, 0], [1, 3, 0, 4], [1, 3, 2, 0]], [[5, 2, 0, 8], [5, 2, 0, 5], [5, 2, 7, 0]], [[2, 4, 5, 0], [2, 4, 4, 0], [2, 4, 3, 0]], [[3, 2, 7, 0], [2, 1, 3, 0], [2, 1, 2, 0]], [[2, 1, 0, 9], [2, 1, 7, 0], [2, 1, 6, 0]], [[2, 2, 9, 0], [2, 2, 0, 1], [2, 2, 5, 0]], [[4, 4, 0, 8], [2, 4, 6, 0], [2, 4, 5, 0]], [[1, 3, 6, 0], [1, 2, 0, 9], [1, 1, 0, 9]], [[3, 3, 0, 4], [3, 1, 0, 3], [3, 1, 8, 0]], [[3, 2, 0, 6], [3, 2, 0, 4], [2, 2, 3, 0]], [[3, 3, 0, 9], [1, 3, 0, 8], [1, 2, 6, 0]], [[5, 4, 0, 7], [2, 2, 0, 6], [2, 1, 4, 0]], [[4, 3, 5, 0], [4, 3, 4, 0], [2, 3, 0, 4]], [[3, 3, 0, 6], [3, 2, 3, 0], [2, 2, 0, 5]], [[2, 5, 0, 5], [2, 4, 0, 5], [2, 3, 3, 0]], [[2, 4, 0, 6], [1, 3, 0, 6], [1, 3, 0, 2]], [[4, 5, 0, 6], [2, 4, 0, 4], [2, 4, 0, 3]], [[4, 3, 7, 0], [2, 2, 6, 0], [2, 2, 0, 7]], [[4, 3, 7, 0], [4, 3, 6, 0], [4, 2, 0, 1]], [[2, 4, 9, 0], [2, 3, 7, 0], [2, 3, 0, 3]], [[4, 4, 0, 3], [4, 3, 4, 0], [3, 2, 0, 2]], [[5, 5, 0, 2], [4, 5, 0, 2], [3, 5, 0, 2]], [[3, 5, 8, 0], [3, 3, 0, 4], [3, 2, 3, 0]], [[5, 3, 0, 5], [3, 2, 8, 0], [1, 2, 0, 3]], [[4, 3, 8, 0], [3, 2, 5, 0], [3, 2, 2, 0]], [[4, 5, 0, 7], [4, 4, 2, 0], [3, 4, 1, 0]], [[3, 2, 9, 0], [2, 1, 7, 0], [1, 1, 0, 6]], [[4, 3, 10, 0], [3, 3, 0, 6], [3, 3, 8, 0]], [[3, 3, 0, 10], [2, 3, 5, 0], [1, 3, 0, 3]], [[4, 4, 7, 0], [3, 3, 0, 4], [3, 2, 0, 2]], [[5, 1, 0, 8], [3, 1, 8, 0], [1, 1, 0, 8]], [[1, 4, 0, 6], [1, 3, 3, 0], [1, 2, 0, 4]], [[2, 1, 3, 0], [2, 1, 0, 6], [2, 1, 0, 4]], [[5, 1, 1, 0], [4, 1, 1, 0], [3, 1, 0, 6]], [[3, 1, 0, 6], [3, 1, 5, 0], [3, 1, 3, 0]], [[2, 4, 1, 0], [1, 4, 1, 0], [1, 4, 0, 3]], [[1, 2, 0, 9], [1, 2, 3, 0], [1, 1, 2, 0]], [[1, 4, 0, 5], [1, 4, 5, 0], [1, 4, 0, 4]], [[4, 4, 7, 0], [2, 2, 7, 0], [2, 1, 0, 1]], [[3, 4, 6, 0], [2, 2, 0, 4], [1, 2, 0, 1]], [[3, 5, 0, 3], [2, 4, 3, 0], [2, 3, 0, 1]], [[3, 1, 10, 0], [3, 1, 0, 6], [1, 1, 0, 5]], [[2, 4, 0, 8], [2, 3, 9, 0], [1, 2, 0, 4]], [[4, 3, 0, 5], [4, 3, 0, 4], [4, 2, 0, 5]], [[4, 3, 7, 0], [4, 2, 5, 0], [4, 2, 4, 0]], [[2, 4, 0, 10], [2, 3, 3, 0], [1, 3, 1, 0]], [[4, 5, 8, 0], [3, 4, 6, 0], [3, 4, 0, 1]], [[4, 2, 7, 0], [4, 2, 0, 3], [4, 1, 0, 1]], [[4, 2, 5, 0], [4, 2, 4, 0], [4, 2, 0, 9]], [[3, 3, 4, 0], [3, 3, 3, 0], [3, 2, 3, 0]], [[2, 2, 0, 9], [1, 1, 3, 0], [1, 1, 1, 0]], [[2, 3, 6, 0], [2, 3, 5, 0], [1, 3, 0, 6]], [[2, 3, 0, 8], [2, 3, 5, 0], [1, 2, 0, 1]], [[4, 4, 0, 9], [4, 2, 0, 9], [4, 2, 0, 8]], [[2, 3, 7, 0], [2, 3, 4, 0], [2, 3, 3, 0]], [[5, 3, 4, 0], [3, 2, 2, 0], [3, 2, 1, 0]], [[4, 1, 10, 0], [2, 1, 7, 0], [2, 1, 0, 7]], [[4, 3, 4, 0], [2, 3, 4, 0], [2, 3, 3, 0]], [[3, 4, 8, 0], [3, 3, 0, 7], [1, 2, 0, 7]], [[4, 4, 0, 8], [2, 4, 0, 6], [2, 4, 0, 5]], [[4, 3, 9, 0], [3, 2, 0, 1], [3, 1, 4, 0]], [[3, 3, 0, 9], [3, 2, 9, 0], [3, 2, 8, 0]], [[4, 1, 0, 3], [4, 1, 4, 0], [4, 1, 0, 2]], [[4, 5, 0, 8], [3, 3, 0, 7], [3, 3, 4, 0]], [[4, 2, 7, 0], [4, 2, 0, 4], [4, 2, 0, 3]], [[2, 3, 9, 0], [2, 3, 0, 5], [2, 2, 0, 1]], [[5, 4, 7, 0], [3, 4, 0, 5], [1, 2, 0, 4]], [[1, 5, 0, 7], [1, 3, 2, 0], [1, 3, 0, 2]], [[2, 1, 0, 9], [2, 1, 4, 0], [2, 1, 0, 7]], [[4, 3, 0, 6], [3, 3, 0, 4], [2, 1, 5, 0]], [[2, 5, 0, 9], [2, 3, 0, 6], [2, 1, 0, 5]], [[4, 3, 9, 0], [4, 3, 7, 0], [4, 2, 0, 2]], [[1, 3, 8, 0], [1, 3, 7, 0], [1, 3, 4, 0]], [[3, 3, 0, 9], [2, 2, 0, 9], [2, 2, 0, 8]], [[4, 1, 6, 0], [3, 1, 0, 6], [3, 1, 4, 0]], [[5, 4, 0, 7], [2, 3, 9, 0], [1, 3, 8, 0]], [[4, 4, 0, 9], [3, 2, 0, 7], [2, 1, 5, 0]], [[2, 4, 0, 9], [1, 4, 0, 9], [1, 4, 0, 8]], [[3, 2, 5, 0], [2, 2, 0, 4], [1, 2, 4, 0]], [[2, 3, 0, 1], [1, 3, 5, 0], [1, 3, 0, 1]], [[3, 4, 1, 0], [3, 2, 0, 7], [1, 2, 0, 7]], [[4, 3, 0, 3], [3, 2, 5, 0], [2, 2, 0, 2]], [[3, 5, 8, 0], [2, 4, 7, 0], [2, 3, 7, 0]], [[4, 5, 0, 1], [3, 4, 6, 0], [3, 4, 3, 0]], [[3, 3, 2, 0], [2, 2, 2, 0], [2, 2, 1, 0]], [[4, 5, 8, 0], [3, 5, 7, 0], [2, 5, 0, 4]], [[4, 4, 9, 0], [3, 4, 0, 3], [2, 4, 0, 2]], [[0, 0, 0, 0]]]
